sat
(:max-memory         18.71
 :memory             18.52
 :nlsat-arith-var    3
 :nlsat-atoms        12
 :nlsat-bool-var     1
 :nlsat-clauses      10
 :nlsat-conflicts    1
 :nlsat-propagations 14
 :nlsat-stages       5
 :num-allocs         119402
 :rlimit-count       32896
 :time               0.04
 :total-time         0.06)
